100
128
4
15
2
3
6
14
45
18
29
5
20
15
56
10
6
21
45
24
38
20
7
21
6
5
32
5
2
20
9
10
54
12
27
1
3
59
2
34
4
44
2
1
44
53
41
64
52
2
47
3
38
62
43
20
1
47
48
3
2
44
39
1
6
9
4
1
53
45
5
55
3
48
56
16
11
45
59
50
51
2
10
54
61
48
58
12
22
24
27
30
32
5
38
36
31
33
64
4
29
4